
Gurobi 12.0.2 (win64) logging started Thu Nov 27 11:57:05 2025

Set parameter LogFile to value "resultados DATA_1_n20m20b2d1\instancia_1_log.txt"
Set parameter TimeLimit to value 3600
Gurobi Optimizer version 12.0.2 build v12.0.2rc0 (win64 - Windows 10.0 (19045.2))

CPU model: Intel(R) Core(TM) i5-6300U CPU @ 2.40GHz, instruction set [SSE2|AVX|AVX2]
Thread count: 2 physical cores, 4 logical processors, using up to 4 threads

Non-default parameters:
TimeLimit  3600

Optimize a model with 5852 rows, 63322 columns and 6881970 nonzeros
Model fingerprint: 0x193a3a29
Variable types: 0 continuous, 63322 integer (63322 binary)
Coefficient statistics:
  Matrix range     [1e+00, 1e+00]
  Objective range  [1e-03, 4e-02]
  Bounds range     [1e+00, 1e+00]
  RHS range        [1e+00, 3e+02]
Found heuristic solution: objective 0.9752500
Presolve removed 0 rows and 12099 columns (presolve time = 5s)...
Presolve removed 0 rows and 12099 columns (presolve time = 10s)...
Presolve removed 0 rows and 12099 columns (presolve time = 15s)...
Presolve removed 0 rows and 12099 columns (presolve time = 20s)...
Presolve removed 0 rows and 12099 columns (presolve time = 25s)...
Presolve removed 0 rows and 12099 columns (presolve time = 30s)...
Presolve removed 0 rows and 12099 columns (presolve time = 35s)...
Presolve removed 0 rows and 12099 columns (presolve time = 40s)...
Presolve removed 0 rows and 12099 columns (presolve time = 45s)...
Presolve removed 0 rows and 12099 columns (presolve time = 50s)...
Presolve removed 0 rows and 12099 columns (presolve time = 55s)...
Presolve removed 0 rows and 12099 columns
Presolve time: 56.54s
Presolved: 5852 rows, 51223 columns, 5465671 nonzeros
Found heuristic solution: objective 0.9662500
Variable types: 0 continuous, 51223 integer (51223 binary)
Deterministic concurrent LP optimizer: dual simplex and barrier
Showing barrier log only...

Root barrier log...

Ordering time: 0.03s

Barrier statistics:
 AA' NZ     : 2.411e+05
 Factor NZ  : 2.743e+05 (roughly 5 MB of memory)
 Factor Ops : 1.316e+08 (less than 1 second per iteration)
 Threads    : 1

                  Objective                Residual
Iter       Primal          Dual         Primal    Dual     Compl     Time
   0   2.61968140e+03  1.15577394e+00  8.35e+03 3.90e-04  1.79e-01    60s
   1   1.40585702e+02  8.84082226e+00  4.61e+02 7.72e-04  1.03e-02    60s
   2   2.20161984e+01  6.47455669e+00  6.84e+01 1.52e-04  1.75e-03    60s
   3   6.00431966e+00  3.98781148e+00  1.62e+01 4.24e-05  5.24e-04    60s
   4   3.77443489e+00  3.29749636e+00  8.97e+00 4.30e-05  3.41e-04    60s
   5   1.25857437e+00  2.28909219e+00  9.06e-01 1.50e-06  1.07e-04    60s
   6   1.02449968e+00  1.29195794e+00  1.04e-01 0.00e+00  2.12e-05    60s
   7   1.00060228e+00  1.03652328e+00  9.61e-03 0.00e+00  2.66e-06    61s
   8   9.99830473e-01  1.00433437e+00  4.20e-04 0.00e+00  3.13e-07    61s
   9   9.99986459e-01  1.00006304e+00  0.00e+00 0.00e+00  5.09e-09    61s
  10   9.99999986e-01  1.00000006e+00  0.00e+00 2.01e-16  5.10e-12    61s
  11   1.00000000e+00  1.00000000e+00  0.00e+00 2.31e-16  5.10e-15    61s

Barrier solved model in 11 iterations and 60.93 seconds (32.06 work units)
Optimal objective 1.00000000e+00


Root crossover log...

       6 DPushes remaining with DInf 0.0000000e+00                61s
       0 DPushes remaining with DInf 0.0000000e+00                61s

    6430 PPushes remaining with PInf 0.0000000e+00                61s
       0 PPushes remaining with PInf 0.0000000e+00                61s

  Push phase complete: Pinf 0.0000000e+00, Dinf 7.2282675e-15     61s


Root simplex log...

Iteration    Objective       Primal Inf.    Dual Inf.      Time
    6439    1.0000000e+00   0.000000e+00   0.000000e+00     61s
Concurrent spin time: 0.00s

Solved with barrier

Use crossover to convert LP symmetric solution to basic solution...

Root crossover log...

     196 DPushes remaining with DInf 0.0000000e+00                72s
      56 DPushes remaining with DInf 0.0000000e+00                75s
       0 DPushes remaining with DInf 0.0000000e+00                76s

     196 PPushes remaining with PInf 0.0000000e+00                77s
       0 PPushes remaining with PInf 0.0000000e+00                79s

  Push phase complete: Pinf 0.0000000e+00, Dinf 1.5182256e-13     79s


Root simplex log...

Iteration    Objective       Primal Inf.    Dual Inf.      Time
    6834    1.0000000e+00   0.000000e+00   0.000000e+00     79s

Root relaxation: objective 1.000000e+00, 6834 iterations, 21.59 seconds (25.84 work units)

    Nodes    |    Current Node    |     Objective Bounds      |     Work
 Expl Unexpl |  Obj  Depth IntInf | Incumbent    BestBd   Gap | It/Node Time

     0     0    1.00000    0 4971    0.97525    1.00000  2.54%     -  186s
     0     0    1.00000    0 4971    0.97525    1.00000  2.54%     -  381s
H    0     0                       0.9792500    1.00000  2.12%     -  735s
H    0     0                       0.9832500    1.00000  1.70%     -  735s
H    0     0                       0.9845000    1.00000  1.57%     -  735s
H    0     0                       0.9847500    1.00000  1.55%     -  741s
H    0     0                       0.9878750    1.00000  1.23%     -  741s
     0     2    1.00000    0 4971    0.98788    1.00000  1.23%     -  937s
     1     4    1.00000    1 5768    0.98788    1.00000  1.23%  8645 1405s
     3     6    1.00000    2 5757    0.98788    1.00000  1.23% 14000 2435s
     5    15    1.00000    3 5783    0.98788    1.00000  1.23% 11311 8792s

Explored 14 nodes (105367 simplex iterations) in 8793.90 seconds (4204.67 work units)
Thread count was 4 (of 4 available processors)

Solution count 7: 0.987875 0.98475 0.9845 ... 0.96625

Time limit reached
Best objective 9.878750000000e-01, best bound 1.000000000000e+00, gap 1.2274%
